1
1000
120
496 1
496 1
496 1
494 1
489 1
486 1
486 1
484 1
470 1
470 1
453 1
450 1
445 1
444 1
443 1
442 1
433 1
430 1
421 1
418 1
418 1
416 1
414 1
412 1
405 1
405 1
404 1
402 1
396 1
390 1
388 1
386 1
384 1
384 1
382 1
373 1
373 1
369 1
365 1
363 1
358 1
357 1
356 1
353 1
350 1
350 1
343 1
340 1
336 1
336 1
332 1
331 1
329 1
329 1
328 1
319 1
316 1
313 1
313 1
311 1
309 1
309 1
309 1
306 1
305 1
302 1
302 1
298 1
294 1
290 1
289 1
289 1
289 1
287 1
284 1
283 1
282 1
280 1
280 1
276 1
275 1
273 1
273 1
271 1
271 1
269 1
267 1
266 1
265 1
264 1
262 1
261 1
261 1
261 1
260 1
260 1
259 1
259 1
258 1
258 1
257 1
257 1
256 1
256 1
256 1
255 1
254 1
254 1
254 1
254 1
254 1
253 1
253 1
252 1
251 1
251 1
251 1
251 1
250 1
250 1
